sets/toy/g4.classic.hcp
NAME : g4
COMMENT : Classic Hamiltonian Graph
TYPE : HCP
DIMENSION : 20
EDGE_DATA_FORMAT : EDGE_LIST
EDGE_DATA_SECTION
1 2
1 3
1 8
2 4
2 7
3 10
3 19
4 5
4 10
5 6
5 12
6 7
6 13
7 9
8 9
8 20
9 14
10 11
11 12
11 16
12 15
13 14
13 15
14 18
15 17
16 17
16 19
17 18
18 20
19 20
