sets/toy/g4.classic.opt.tour
NAME : Solution for ../sets/toy/g4
COMMENT : Tour found
TYPE : TOUR
DIMENSION : 20
TOUR_SECTION
1 2 4 5 6 7 9 8 20 19
16 17 18 14 13 15 12 11 10 3
-1
EOF
